NAME : gaussian_missing_edges_with_de_seg1_seg2_seg3_random72.3373.tour
COMMENT : Length = 3373
COMMENT : Found by LKH [Keld Helsgaun] Fri Jul 12 16:34:04 2024
TYPE : TOUR
DIMENSION : 72
TOUR_SECTION
1
50
47
3
4
26
33
32
21
36
22
54
37
8
66
24
19
20
48
46
41
71
67
40
65
49
57
6
29
72
55
60
34
12
14
62
35
30
69
10
53
38
23
18
51
58
27
61
64
63
7
68
17
13
45
25
31
5
70
11
43
44
56
39
2
15
28
9
42
52
16
59
-1
EOF
